 &CONTROL
  calculation = 'bands',
  etot_conv_thr =   8.0000000000d-05
  forc_conv_thr =   1.0000000000d-04
  outdir = './out/',
  prefix = 'Si',
  pseudo_dir = '/home/acedemo/psudo',
  tprnfor = .true.,
  tstress = .true.,
  !verbosity = 'high'
/
&SYSTEM
  ibrav=2,
  celldm(1)=10.2623466921d0,
  nat=2,
  ntyp=3,
  ecutwfc=50.0d0,
  occupations = 'smearing'
  smearing = 'cold'
  degauss = 0.05
  nbnd = 12
 
/
&ELECTRONS
  conv_thr =   1.6000000000d-09
  electron_maxstep = 800
  mixing_beta =   3.0000000000d-01
/
ATOMIC_SPECIES
  Si 28.085500d0 Si.pbe-mt_fhi.UPF
  B  10.811d0       B.pbe-mt_fhi.UPF
  P  30.973762d0 P.pbe-mt_fhi.UPF

ATOMIC_POSITIONS {alat}
   B     0.00    0.00    0.00
   P     0.25    0.25    0.25
   Si   -0.50    0.00    0.50
   Si   -0.25    0.25    0.75
   
K_POINTS {crystal_b}
	6
   0.0000000000     0.5000000000     0.0000000000  10   !L
   0.0000000000     0.0000000000     0.0000000000  10   !GAMMA
   0.0000000000     0.5000000000     0.5000000000  10   !X
   0.3750000000     0.7500000000     0.3750000000  10   !K
   0.5000000000     0.7500000000     0.2500000000  10   !W
   0.0000000000     0.0000000000     0.0000000000  10   !GAMMA

