&bands
   outdir='./out/',
   prefix='Si',
   filband='bands.dat'
/
