&CONTROL
  calculation = 'relax'
  etot_conv_thr =   1.0000000000d-04
  forc_conv_thr =   1.0000000000d-04
  outdir = './out/'
  prefix = 'aiida'
  pseudo_dir = './'
  tprnfor = .true.
  tstress = .true.
  verbosity = 'high'
/
&SYSTEM
  degauss =   1.4699723600d-02
  ecutrho =   3.6000000000d+02
  ecutwfc =   4.5000000000d+01
  ibrav = 0
  nat = 270
  ntyp = 2
  occupations = 'smearing'
  smearing = 'cold'
/
&ELECTRONS
  conv_thr =   2.0000000000d-09
  electron_maxstep = 80
  mixing_beta =   4.0000000000d-01
/
&IONS
ion_dynamics = 'bfgs'
/
&CELL
cell_dynamics = 'bfgs'
press = 1.0e-3
press_conv_thr = 0.1
/
ATOMIC_SPECIES
Ag     107.868 Ag.pbe-mt_fhi.UPF
C      12.011 C.pbe-mt_fhi.UPF 
ATOMIC_POSITIONS crystal
  Ag        2.4450244500      1.4116072900      0.7139200000                 
  Ag        0.0000000000      2.8232145800      0.7139200000                 
  Ag        2.4450000000      1.4116496400      3.1660800000                 
  Ag       -0.0000244500      2.8232569300      3.1660800000                 
  Ag        1.2225000000      2.1174321100      1.3192000000                 
  Ag        2.4450000000      0.0000000000      1.3192000000                 
  Ag        2.4450000000      0.0000000000      2.5608000000                 
  Ag       -1.2225000000      2.1174321100      2.5608000000                 
  Ag       -1.2225000000      2.1174321100      1.3192000000                 
  Ag        1.2225000000      2.1174321100      2.5608000000                 
  Ag        2.4450244500      1.4116072900      4.5939200000                 
  Ag        0.0000000000      2.8232145800      4.5939200000                 
  Ag        2.4450000000      1.4116496400      7.0460800000                 
  Ag       -0.0000244500      2.8232569300      7.0460800000                 
  Ag        1.2225000000      2.1174321100      5.1992000000                 
  Ag        2.4450000000      0.0000000000      5.1992000000                 
  Ag        2.4450000000      0.0000000000      6.4408000000                 
  Ag       -1.2225000000      2.1174321100      6.4408000000                 
  Ag       -1.2225000000      2.1174321100      5.1992000000                 
  Ag        1.2225000000      2.1174321100      6.4408000000                 
  Ag        2.4450244500      1.4116072900      8.4739200000                 
  Ag        0.0000000000      2.8232145800      8.4739200000                 
  Ag        2.4450000000      1.4116496400     10.9260800000                 
  Ag       -0.0000244500      2.8232569300     10.9260800000                 
  Ag        1.2225000000      2.1174321100      9.0792000000                 
  Ag        2.4450000000      0.0000000000      9.0792000000                 
  Ag        2.4450000000      0.0000000000     10.3208000000                 
  Ag       -1.2225000000      2.1174321100     10.3208000000                 
  Ag       -1.2225000000      2.1174321100      9.0792000000                 
  Ag        1.2225000000      2.1174321100     10.3208000000                 
  Ag        0.0000244500      5.6464715200      0.7139200000                 
  Ag       -2.4450000000      7.0580788100      0.7139200000                 
  Ag        0.0000000000      5.6465138700      3.1660800000                 
  Ag       -2.4450244500      7.0581211600      3.1660800000                 
  Ag       -1.2225000000      6.3522963400      1.3192000000                 
  Ag        0.0000000000      4.2348642200      1.3192000000                 
  Ag        0.0000000000      4.2348642200      2.5608000000                 
  Ag       -3.6675000000      6.3522963400      2.5608000000                 
  Ag       -3.6675000000      6.3522963400      1.3192000000                 
  Ag       -1.2225000000      6.3522963400      2.5608000000                 
  Ag        0.0000244500      5.6464715200      4.5939200000                 
  Ag       -2.4450000000      7.0580788100      4.5939200000                 
  Ag        0.0000000000      5.6465138700      7.0460800000                 
  Ag       -2.4450244500      7.0581211600      7.0460800000                 
  Ag       -1.2225000000      6.3522963400      5.1992000000                 
  Ag        0.0000000000      4.2348642200      5.1992000000                 
  Ag        0.0000000000      4.2348642200      6.4408000000                 
  Ag       -3.6675000000      6.3522963400      6.4408000000                 
  Ag       -3.6675000000      6.3522963400      5.1992000000                 
  Ag       -1.2225000000      6.3522963400      6.4408000000                 
  Ag        0.0000244500      5.6464715200      8.4739200000                 
  Ag       -2.4450000000      7.0580788100      8.4739200000                 
  Ag        0.0000000000      5.6465138700     10.9260800000                 
  Ag       -2.4450244500      7.0581211600     10.9260800000                 
  Ag       -1.2225000000      6.3522963400      9.0792000000                 
  Ag        0.0000000000      4.2348642200      9.0792000000                 
  Ag        0.0000000000      4.2348642200     10.3208000000                 
  Ag       -3.6675000000      6.3522963400     10.3208000000                 
  Ag       -3.6675000000      6.3522963400      9.0792000000                 
  Ag       -1.2225000000      6.3522963400     10.3208000000                 
  Ag       -2.4449755500      9.8813357400      0.7139200000                 
  Ag       -4.8900000000     11.2929430300      0.7139200000                 
  Ag       -2.4450000000      9.8813780900      3.1660800000                 
  Ag       -4.8900244500     11.2929853800      3.1660800000                 
  Ag       -3.6675000000     10.5871605600      1.3192000000                 
  Ag       -2.4450000000      8.4697284500      1.3192000000                 
  Ag       -2.4450000000      8.4697284500      2.5608000000                 
  Ag       -6.1125000000     10.5871605600      2.5608000000                 
  C       -6.1125000000     10.5871605600      1.3192000000                 
  C       -3.6675000000     10.5871605600      2.5608000000                 
  C       -2.4449755500      9.8813357400      4.5939200000                 
  C       -4.8900000000     11.2929430300      4.5939200000                 
  C       -2.4450000000      9.8813780900      7.0460800000                 
  C       -4.8900244500     11.2929853800      7.0460800000                 
  C       -3.6675000000     10.5871605600      5.1992000000                 
  C       -2.4450000000      8.4697284500      5.1992000000                 
  C       -2.4450000000      8.4697284500      6.4408000000                 
  C       -6.1125000000     10.5871605600      6.4408000000                  
  C       -6.1125000000     10.5871605600      5.1992000000                  
  C       -3.6675000000     10.5871605600      6.4408000000                 
  C       -2.4449755500      9.8813357400      8.4739200000                 
  C       -4.8900000000     11.2929430300      8.4739200000                 
  C       -2.4450000000      9.8813780900     10.9260800000                 
  C       -4.8900244500     11.2929853800     10.9260800000                 
  C       -3.6675000000     10.5871605600      9.0792000000                 
  C       -2.4450000000      8.4697284500      9.0792000000                 
  C       -2.4450000000      8.4697284500     10.3208000000                 
  C       -6.1125000000     10.5871605600     10.3208000000                 
  C       -6.1125000000     10.5871605600      9.0792000000                 
  C       -3.6675000000     10.5871605600     10.3208000000                 
  C        7.3350244500      1.4116072900      0.7139200000                 
  C        4.8900000000      2.8232145800      0.7139200000                 
  C        7.3350000000      1.4116496400      3.1660800000                 
  C        4.8899755500      2.8232569300      3.1660800000                 
  C        6.1125000000      2.1174321100      1.3192000000                 
  C        7.3350000000      0.0000000000      1.3192000000                 
  C        7.3350000000      0.0000000000      2.5608000000                 
  C        3.6675000000      2.1174321100      2.5608000000                 
  C        3.6675000000      2.1174321100      1.3192000000                 
  C        6.1125000000      2.1174321100      2.5608000000                 
  C        7.3350244500      1.4116072900      4.5939200000                 
  C        4.8900000000      2.8232145800      4.5939200000                 
  C        7.3350000000      1.4116496400      7.0460800000                 
  C        4.8899755500      2.8232569300      7.0460800000                 
  C        6.1125000000      2.1174321100      5.1992000000                 
  C        7.3350000000      0.0000000000      5.1992000000                 
  C        7.3350000000      0.0000000000      6.4408000000                 
  C        3.6675000000      2.1174321100      6.4408000000                 
  C        3.6675000000      2.1174321100      5.1992000000                 
  C        6.1125000000      2.1174321100      6.4408000000                 
  C        7.3350244500      1.4116072900      8.4739200000                 
  C        4.8900000000      2.8232145800      8.4739200000                 
  C        7.3350000000      1.4116496400     10.9260800000                 
  C        4.8899755500      2.8232569300     10.9260800000                 
  C        6.1125000000      2.1174321100      9.0792000000                 
  C        7.3350000000      0.0000000000      9.0792000000                 
  C        7.3350000000      0.0000000000     10.3208000000                 
  C        3.6675000000      2.1174321100     10.3208000000                 
  C        3.6675000000      2.1174321100      9.0792000000                 
  C        6.1125000000      2.1174321100     10.3208000000                 
  C        4.8900244500      5.6464715200      0.7139200000                 
  C        2.4450000000      7.0580788100      0.7139200000                 
  C        4.8900000000      5.6465138700      3.1660800000                 
  C        2.4449755500      7.0581211600      3.1660800000                 
  C        3.6675000000      6.3522963400      1.3192000000                 
  C        4.8900000000      4.2348642200      1.3192000000                 
  C        4.8900000000      4.2348642200      2.5608000000                 
  C        1.2225000000      6.3522963400      2.5608000000                 
  C        1.2225000000      6.3522963400      1.3192000000                 
  C        3.6675000000      6.3522963400      2.5608000000                 
  C        4.8900244500      5.6464715200      4.5939200000                 
  C        2.4450000000      7.0580788100      4.5939200000                 
  C        4.8900000000      5.6465138700      7.0460800000                 
  C        2.4449755500      7.0581211600      7.0460800000                 
  C        3.6675000000      6.3522963400      5.1992000000                 
  C        4.8900000000      4.2348642200      5.1992000000                 
  C        4.8900000000      4.2348642200      6.4408000000                 
  C        1.2225000000      6.3522963400      6.4408000000                 
  C        1.2225000000      6.3522963400      5.1992000000                 
  C        3.6675000000      6.3522963400      6.4408000000                 
  C        4.8900244500      5.6464715200      8.4739200000                 
  C        2.4450000000      7.0580788100      8.4739200000                 
  C        4.8900000000      5.6465138700     10.9260800000                 
  C        2.4449755500      7.0581211600     10.9260800000                 
  C        3.6675000000      6.3522963400      9.0792000000                 
  C        4.8900000000      4.2348642200      9.0792000000                 
  C        4.8900000000      4.2348642200     10.3208000000                 
  C        1.2225000000      6.3522963400     10.3208000000                 
  C        1.2225000000      6.3522963400      9.0792000000                 
  C        3.6675000000      6.3522963400     10.3208000000                 
  C        2.4450244500      9.8813357400      0.7139200000                 
  C        0.0000000000     11.2929430300      0.7139200000                 
  C        2.4450000000      9.8813780900      3.1660800000                 
  C       -0.0000244500     11.2929853800      3.1660800000                 
  C        1.2225000000     10.5871605600      1.3192000000                 
  C        2.4450000000      8.4697284500      1.3192000000                 
  C        2.4450000000      8.4697284500      2.5608000000                 
  C       -1.2225000000     10.5871605600      2.5608000000                 
  C       -1.2225000000     10.5871605600      1.3192000000                 
  C        1.2225000000     10.5871605600      2.5608000000                 
  C        2.4450244500      9.8813357400      4.5939200000                 
  C        0.0000000000     11.2929430300      4.5939200000                 
  C        2.4450000000      9.8813780900      7.0460800000                 
  C       -0.0000244500     11.2929853800      7.0460800000                 
  C        1.2225000000     10.5871605600      5.1992000000                 
  C        2.4450000000      8.4697284500      5.1992000000                 
  C        2.4450000000      8.4697284500      6.4408000000                 
  C       -1.2225000000     10.5871605600      6.4408000000                 
  C       -1.2225000000     10.5871605600      5.1992000000                 
  C        1.2225000000     10.5871605600      6.4408000000                 
  C        2.4450244500      9.8813357400      8.4739200000                 
  C        0.0000000000     11.2929430300      8.4739200000                 
  C        2.4450000000      9.8813780900     10.9260800000                 
  C       -0.0000244500     11.2929853800     10.9260800000                 
  C        1.2225000000     10.5871605600      9.0792000000                 
  C        2.4450000000      8.4697284500      9.0792000000                 
  C        2.4450000000      8.4697284500     10.3208000000                 
  C       -1.2225000000     10.5871605600     10.3208000000                 
  C       -1.2225000000     10.5871605600      9.0792000000                  
  C        1.2225000000     10.5871605600     10.3208000000                 
  C       12.2250244500      1.4116072900      0.7139200000                 
  C        9.7800000000      2.8232145800      0.7139200000                 
  C       12.2250000000      1.4116496400      3.1660800000                 
  C        9.7799755500      2.8232569300      3.1660800000                 
  C       11.0025000000      2.1174321100      1.3192000000                 
  C       12.2250000000      0.0000000000      1.3192000000                 
  C       12.2250000000      0.0000000000      2.5608000000                 
  C        8.5575000000      2.1174321100      2.5608000000                 
  C        8.5575000000      2.1174321100      1.3192000000                 
  C       11.0025000000      2.1174321100      2.5608000000                 
  C       12.2250244500      1.4116072900      4.5939200000                 
  C        9.7800000000      2.8232145800      4.5939200000                 
  C       12.2250000000      1.4116496400      7.0460800000                 
  C        9.7799755500      2.8232569300      7.0460800000                 
  C       11.0025000000      2.1174321100      5.1992000000                 
  C       12.2250000000      0.0000000000      5.1992000000                 
  C       12.2250000000      0.0000000000      6.4408000000                 
  C        8.5575000000      2.1174321100      6.4408000000                 
  C        8.5575000000      2.1174321100      5.1992000000                 
  C       11.0025000000      2.1174321100      6.4408000000                 
  C       12.2250244500      1.4116072900      8.4739200000                 
  C        9.7800000000      2.8232145800      8.4739200000                 
  C       12.2250000000      1.4116496400     10.9260800000                 
  C        9.7799755500      2.8232569300     10.9260800000                 
  C       11.0025000000      2.1174321100      9.0792000000                 
  C       12.2250000000      0.0000000000      9.0792000000                 
  C       12.2250000000      0.0000000000     10.3208000000                 
  C        8.5575000000      2.1174321100     10.3208000000                 
  C        8.5575000000      2.1174321100      9.0792000000                 
  C       11.0025000000      2.1174321100     10.3208000000                 
  C        9.7800244500      5.6464715200      0.7139200000                 
  C        7.3350000000      7.0580788100      0.7139200000                 
  C        9.7800000000      5.6465138700      3.1660800000                 
  C        7.3349755500      7.0581211600      3.1660800000                   
  C        8.5575000000      6.3522963400      1.3192000000                 
  C        9.7800000000      4.2348642200      1.3192000000                 
  C        9.7800000000      4.2348642200      2.5608000000                 
  C        6.1125000000      6.3522963400      2.5608000000                 
  C        6.1125000000      6.3522963400      1.3192000000                 
  C        8.5575000000      6.3522963400      2.5608000000                 
  C        9.7800244500      5.6464715200      4.5939200000                 
  C        7.3350000000      7.0580788100      4.5939200000                   
  C        9.7800000000      5.6465138700      7.0460800000                 
  C        7.3349755500      7.0581211600      7.0460800000                 
  C        8.5575000000      6.3522963400      5.1992000000                 
  C        9.7800000000      4.2348642200      5.1992000000                 
  C        9.7800000000      4.2348642200      6.4408000000                 
  C        6.1125000000      6.3522963400      6.4408000000                 
  C        6.1125000000      6.3522963400      5.1992000000                 
  C        8.5575000000      6.3522963400      6.4408000000                 
  C        9.7800244500      5.6464715200      8.4739200000                 
  C        7.3350000000      7.0580788100      8.4739200000                 
  C        9.7800000000      5.6465138700     10.9260800000                 
  C        7.3349755500      7.0581211600     10.9260800000                 
  C        8.5575000000      6.3522963400      9.0792000000                 
  C        9.7800000000      4.2348642200      9.0792000000                 
  C        9.7800000000      4.2348642200     10.3208000000                 
  C        6.1125000000      6.3522963400     10.3208000000                 
  C        6.1125000000      6.3522963400      9.0792000000                 
  C        8.5575000000      6.3522963400     10.3208000000                 
  C        7.3350244500      9.8813357400      0.7139200000                 
  C        4.8900000000     11.2929430300      0.7139200000                 
  C        7.3350000000      9.8813780900      3.1660800000                 
  C        4.8899755500     11.2929853800      3.1660800000                 
  C        6.1125000000     10.5871605600      1.3192000000                 
  C        7.3350000000      8.4697284500      1.3192000000                 
  C        7.3350000000      8.4697284500      2.5608000000                   
  C        3.6675000000     10.5871605600      2.5608000000                 
  C        3.6675000000     10.5871605600      1.3192000000                 
  C        6.1125000000     10.5871605600      2.5608000000                 
  C        7.3350244500      9.8813357400      4.5939200000                 
  C        4.8900000000     11.2929430300      4.5939200000                 
  C        7.3350000000      9.8813780900      7.0460800000                 
  C        4.8899755500     11.2929853800      7.0460800000                 
  C        6.1125000000     10.5871605600      5.1992000000                 
  C        7.3350000000      8.4697284500      5.1992000000                 
  C        7.3350000000      8.4697284500      6.4408000000                 
  C        3.6675000000     10.5871605600      6.4408000000                 
  C        3.6675000000     10.5871605600      5.1992000000                 
  C        6.1125000000     10.5871605600      6.4408000000                 
  C        7.3350244500      9.8813357400      8.4739200000                 
  C        4.8900000000     11.2929430300      8.4739200000                 
  C        7.3350000000      9.8813780900     10.9260800000                 
  C        4.8899755500     11.2929853800     10.9260800000                 
  C        6.1125000000     10.5871605600      9.0792000000                 
  C        7.3350000000      8.4697284500      9.0792000000                 
  C        7.3350000000      8.4697284500     10.3208000000                 
  C        3.6675000000     10.5871605600     10.3208000000                 
  C        3.6675000000     10.5871605600      9.0792000000                 
  C        6.1125000000     10.5871605600     10.3208000000                 
K_POINTS automatic
8 8 9 0 0 0
CELL_PARAMETERS angstrom
      14.670     0.0000    0.00000
     -7.335      12.705   -0.00000
      0.00000   -0.00000   11.640
      
