&DOS
    prefix='Si'
    outdir='./out/'
    fildos='Si.dos.dat'
    /
